p cnf 40 305
1 6 11 16 21 26 31 36 0
2 7 12 17 22 27 32 37 0
3 8 13 18 23 28 33 38 0
4 9 14 19 24 29 34 39 0
5 10 15 20 25 30 35 40 0
-1 -2 0
-1 -3 0
-1 -4 0
-1 -5 0
-2 -3 0
-2 -4 0
-2 -5 0
-3 -4 0
-3 -5 0
-4 -5 0
-6 -7 0
-6 -8 0
-6 -9 0
-6 -10 0
-7 -8 0
-7 -9 0
-7 -10 0
-8 -9 0
-8 -10 0
-9 -10 0
-11 -12 0
-11 -13 0
-11 -14 0
-11 -15 0
-12 -13 0
-12 -14 0
-12 -15 0
-13 -14 0
-13 -15 0
-14 -15 0
-16 -17 0
-16 -18 0
-16 -19 0
-16 -20 0
-17 -18 0
-17 -19 0
-17 -20 0
-18 -19 0
-18 -20 0
-19 -20 0
-21 -22 0
-21 -23 0
-21 -24 0
-21 -25 0
-22 -23 0
-22 -24 0
-22 -25 0
-23 -24 0
-23 -25 0
-24 -25 0
-26 -27 0
-26 -28 0
-26 -29 0
-26 -30 0
-27 -28 0
-27 -29 0
-27 -30 0
-28 -29 0
-28 -30 0
-29 -30 0
-31 -32 0
-31 -33 0
-31 -34 0
-31 -35 0
-32 -33 0
-32 -34 0
-32 -35 0
-33 -34 0
-33 -35 0
-34 -35 0
-36 -37 0
-36 -38 0
-36 -39 0
-36 -40 0
-37 -38 0
-37 -39 0
-37 -40 0
-38 -39 0
-38 -40 0
-39 -40 0
-1 -12 0
-1 -13 0
-1 -14 0
-1 -15 0
-2 -11 0
-2 -13 0
-2 -14 0
-2 -15 0
-3 -11 0
-3 -12 0
-3 -14 0
-3 -15 0
-4 -11 0
-4 -12 0
-4 -13 0
-4 -15 0
-5 -11 0
-5 -12 0
-5 -13 0
-5 -14 0
-1 -32 0
-1 -33 0
-1 -34 0
-1 -35 0
-2 -31 0
-2 -33 0
-2 -34 0
-2 -35 0
-3 -31 0
-3 -32 0
-3 -34 0
-3 -35 0
-4 -31 0
-4 -32 0
-4 -33 0
-4 -35 0
-5 -31 0
-5 -32 0
-5 -33 0
-5 -34 0
-1 -37 0
-1 -38 0
-1 -39 0
-1 -40 0
-2 -36 0
-2 -38 0
-2 -39 0
-2 -40 0
-3 -36 0
-3 -37 0
-3 -39 0
-3 -40 0
-4 -36 0
-4 -37 0
-4 -38 0
-4 -40 0
-5 -36 0
-5 -37 0
-5 -38 0
-5 -39 0
-6 -37 0
-6 -38 0
-6 -39 0
-6 -40 0
-7 -36 0
-7 -38 0
-7 -39 0
-7 -40 0
-8 -36 0
-8 -37 0
-8 -39 0
-8 -40 0
-9 -36 0
-9 -37 0
-9 -38 0
-9 -40 0
-10 -36 0
-10 -37 0
-10 -38 0
-10 -39 0
-11 -17 0
-11 -18 0
-11 -19 0
-11 -20 0
-12 -16 0
-12 -18 0
-12 -19 0
-12 -20 0
-13 -16 0
-13 -17 0
-13 -19 0
-13 -20 0
-14 -16 0
-14 -17 0
-14 -18 0
-14 -20 0
-15 -16 0
-15 -17 0
-15 -18 0
-15 -19 0
-11 -22 0
-11 -23 0
-11 -24 0
-11 -25 0
-12 -21 0
-12 -23 0
-12 -24 0
-12 -25 0
-13 -21 0
-13 -22 0
-13 -24 0
-13 -25 0
-14 -21 0
-14 -22 0
-14 -23 0
-14 -25 0
-15 -21 0
-15 -22 0
-15 -23 0
-15 -24 0
-11 -27 0
-11 -28 0
-11 -29 0
-11 -30 0
-12 -26 0
-12 -28 0
-12 -29 0
-12 -30 0
-13 -26 0
-13 -27 0
-13 -29 0
-13 -30 0
-14 -26 0
-14 -27 0
-14 -28 0
-14 -30 0
-15 -26 0
-15 -27 0
-15 -28 0
-15 -29 0
-16 -22 0
-16 -23 0
-16 -24 0
-16 -25 0
-17 -21 0
-17 -23 0
-17 -24 0
-17 -25 0
-18 -21 0
-18 -22 0
-18 -24 0
-18 -25 0
-19 -21 0
-19 -22 0
-19 -23 0
-19 -25 0
-20 -21 0
-20 -22 0
-20 -23 0
-20 -24 0
-26 -32 0
-26 -33 0
-26 -34 0
-26 -35 0
-27 -31 0
-27 -33 0
-27 -34 0
-27 -35 0
-28 -31 0
-28 -32 0
-28 -34 0
-28 -35 0
-29 -31 0
-29 -32 0
-29 -33 0
-29 -35 0
-30 -31 0
-30 -32 0
-30 -33 0
-30 -34 0
-26 -37 0
-26 -38 0
-26 -39 0
-26 -40 0
-27 -36 0
-27 -38 0
-27 -39 0
-27 -40 0
-28 -36 0
-28 -37 0
-28 -39 0
-28 -40 0
-29 -36 0
-29 -37 0
-29 -38 0
-29 -40 0
-30 -36 0
-30 -37 0
-30 -38 0
-30 -39 0
-31 -37 0
-31 -38 0
-31 -39 0
-31 -40 0
-32 -36 0
-32 -38 0
-32 -39 0
-32 -40 0
-33 -36 0
-33 -37 0
-33 -39 0
-33 -40 0
-34 -36 0
-34 -37 0
-34 -38 0
-34 -40 0
-35 -36 0
-35 -37 0
-35 -38 0
-35 -39 0
